0000000000000000
0000000000000000
0111111111110000
0110000011111000
0000000000111000
0000000000111000
0000000000111000
0011000000011000
0011000000011000
0011000000011000
0011000000011000
0011000000011000
0011000000011000
0011000000011000
0000000000011000
0000000000011000
